8 6 99
6 5 1 1 1 7 1 7 2 2 2 3 2 1 19 19 31 31 51 51 71 71 87 87 99 
5 4 1 8 1 4 2 1 2 7 3 9 37 37 55 55 67 67 77 77 99 
4 6 1 5 2 8 2 8 3 5 29 29 65 65 85 85 99 
4 2 1 6 2 3 1 6 3 13 33 33 69 69 85 85 97 
13 6 1 0 0 2 1 0 0 8 1 0 0 7 1 0 0 6 2 0 0 3 1 2 2 7 3 0 5 5 7 7 13 13 14 14 16 16 21 21 22 25 29 29 30 30 31 31 37 37 39 71 72 
11 5 1 0 0 4 1 0 0 1 1 5 2 0 0 1 2 8 2 0 0 3 2 0 1 1 7 7 9 9 14 14 15 19 23 28 31 31 32 55 58 84 85 85 87 
